Maximize
F - f1 - f2

Subject to
F - 4y5 - 6y16 - 4y22 - 4y34 - 6y49 - 8y52 - 6y68 - 8y72 - 8y84 - 2y100 - 8y108 - 4y112 - 8y134 - 8y135 - 8y142 - 8y155 - 8y163 - 4y165 - 2y170 - 2y98 - 4y147 - 8y66 - 6y94 - 2y2 - 6y8 - 2y13 = 0
f1 - 0.005638s5 - 0.005638s16 - 0.005638s22 - 0.005638s34 - 0.005638s49 - 0.005638s52 - 0.005638s68 - 0.005638s72 - 0.005638s84 - 0.005638s100 - 0.005638s108 - 0.005638s112 - 0.005638s134 - 0.005638s135 - 0.005638s142 - 0.005638s155 - 0.005638s163 - 0.005638s165 - 0.005638s170 - 0.005638s98 - 0.005638s147 - 0.005638s66 - 0.005638s94 - 0.005638s2 - 0.005638s8 - 0.005638s13  = 0
f2 - 3.69y5 - 3.71y16 - 2.83y22 - 3.81y34 - 2.70y49 - 4.19y52 - 3.78y68 - 4.15y72 - 2.54y84 - 2.58y100 - 2.42y108 - 3.92y112 - 4.28y134 - 2.85y135 - 2.62y142 - 2.86y155 - 2.45y163 - 3.82y165 - 2.48y170 - 2.25y98 - 1.42y147 - 1.38y66 - 1.47y94 - 2.39y2 - 1.28y8 - 1.13y13 = 0

x171x147x1 + x171x66x1 + x171x2x1 + x171x8x1 
<= 2
x107x49x1 + x107x163x1 + x107x170x1 + x107x98x1 + x107x147x1 + x107x66x1 + x107x2x1 + x107x8x1 
<= 2
x92x147x1 + x92x66x1 + x92x2x1 + x92x8x1 
<= 1
x138x16x1 + x138x22x1 + x138x34x1 + x138x49x1 + x138x68x1 + x138x72x1 + x138x135x1 + x138x163x1 + x138x170x1 + x138x98x1 + x138x147x1 + x138x66x1 + x138x2x1 + x138x8x1 
<= 1
x109x16x1 + x109x22x1 + x109x49x1 + x109x68x1 + x109x135x1 + x109x163x1 + x109x170x1 + x109x98x1 + x109x147x1 + x109x66x1 + x109x2x1 + x109x8x1 
<= 2
x23x66x2 + x23x94x2 + x23x13x2 
<= 1
x92x66x2 + x92x94x2 + x92x13x2 
<= 1
x137x49x2 + x137x100x2 + x137x108x2 + x137x155x2 + x137x98x2 + x137x66x2 + x137x94x2 + x137x13x2 
<= 1
x149x49x2 + x149x100x2 + x149x108x2 + x149x155x2 + x149x98x2 + x149x66x2 + x149x94x2 + x149x13x2 
<= 1
x43x49x2 + x43x100x2 + x43x108x2 + x43x155x2 + x43x98x2 + x43x66x2 + x43x94x2 + x43x13x2 
<= 2
x83x5x2 + x83x49x2 + x83x72x2 + x83x100x2 + x83x108x2 + x83x155x2 + x83x165x2 + x83x98x2 + x83x66x2 + x83x94x2 + x83x13x2 
<= 2

x23x147x3 + x23x2x3 + x23x13x3 
<= 1
x114x16x3 + x114x22x3 + x114x84x3 + x114x135x3 + x114x142x3 + x114x155x3 + x114x163x3 + x114x147x3 + x114x2x3 + x114x13x3 
<= 2
x122x22x3 + x122x84x3 + x122x135x3 + x122x142x3 + x122x155x3 + x122x163x3 + x122x147x3 + x122x2x3 + x122x13x3 
<= 2
x137x22x3 + x137x84x3 + x137x135x3 + x137x142x3 + x137x155x3 + x137x163x3 + x137x147x3 + x137x2x3 + x137x13x3 
<= 1
x7x22x3 + x7x84x3 + x7x135x3 + x7x142x3 + x7x155x3 + x7x163x3 + x7x147x3 + x7x2x3 + x7x13x3 
<= 2

x83x5x2 
- x5x0x2
- x5x66x2 - x5x94x2 - x5x13x2 
= 0

- x5x147x3 - x5x2x3 - x5x13x3 
= 0

x138x16x1 + x109x16x1 
- x16x0x1
- x16x147x1 - x16x66x1 - x16x2x1 - x16x8x1 
= 0

x114x16x3 
- x16x0x3
- x16x147x3 - x16x2x3 - x16x13x3 
= 0

x138x22x1 + x109x22x1 
- x22x0x1
- x22x147x1 - x22x66x1 - x22x2x1 - x22x8x1 
= 0

x114x22x3 + x122x22x3 + x137x22x3 + x7x22x3 
- x22x0x3
- x22x147x3 - x22x2x3 - x22x13x3 
= 0

x138x34x1 
- x34x0x1
- x34x147x1 - x34x66x1 - x34x2x1 - x34x8x1 
= 0



x107x49x1 + x138x49x1 + x109x49x1 
- x49x0x1
- x49x147x1 - x49x66x1 - x49x2x1 - x49x8x1 
= 0
x137x49x2 + x149x49x2 + x43x49x2 + x83x49x2 
- x49x0x2
- x49x66x2 - x49x94x2 - x49x13x2 
= 0



- x52x147x1 - x52x66x1 - x52x2x1 - x52x8x1 
= 0

- x52x66x2 - x52x94x2 - x52x13x2 
= 0


x138x68x1 + x109x68x1 
- x68x0x1
- x68x147x1 - x68x66x1 - x68x2x1 - x68x8x1 
= 0



x138x72x1 
- x72x0x1
- x72x147x1 - x72x66x1 - x72x2x1 - x72x8x1 
= 0
x83x72x2 
- x72x0x2
- x72x66x2 - x72x94x2 - x72x13x2 
= 0




x114x84x3 + x122x84x3 + x137x84x3 + x7x84x3 
- x84x0x3
- x84x147x3 - x84x2x3 - x84x13x3 
= 0


x137x100x2 + x149x100x2 + x43x100x2 + x83x100x2 
- x100x0x2
- x100x66x2 - x100x94x2 - x100x13x2 
= 0



x137x108x2 + x149x108x2 + x43x108x2 + x83x108x2 
- x108x0x2
- x108x66x2 - x108x94x2 - x108x13x2 
= 0




- x112x66x2 - x112x94x2 - x112x13x2 
= 0




- x134x66x2 - x134x94x2 - x134x13x2 
= 0


x138x135x1 + x109x135x1 
- x135x0x1
- x135x147x1 - x135x66x1 - x135x2x1 - x135x8x1 
= 0

x114x135x3 + x122x135x3 + x137x135x3 + x7x135x3 
- x135x0x3
- x135x147x3 - x135x2x3 - x135x13x3 
= 0



x114x142x3 + x122x142x3 + x137x142x3 + x7x142x3 
- x142x0x3
- x142x147x3 - x142x2x3 - x142x13x3 
= 0


x137x155x2 + x149x155x2 + x43x155x2 + x83x155x2 
- x155x0x2
- x155x66x2 - x155x94x2 - x155x13x2 
= 0
x114x155x3 + x122x155x3 + x137x155x3 + x7x155x3 
- x155x0x3
- x155x147x3 - x155x2x3 - x155x13x3 
= 0

x107x163x1 + x138x163x1 + x109x163x1 
- x163x0x1
- x163x147x1 - x163x66x1 - x163x2x1 - x163x8x1 
= 0

x114x163x3 + x122x163x3 + x137x163x3 + x7x163x3 
- x163x0x3
- x163x147x3 - x163x2x3 - x163x13x3 
= 0


x83x165x2 
- x165x0x2
- x165x66x2 - x165x94x2 - x165x13x2 
= 0


x107x170x1 + x138x170x1 + x109x170x1 
- x170x0x1
- x170x147x1 - x170x66x1 - x170x2x1 - x170x8x1 
= 0



x107x98x1 + x138x98x1 + x109x98x1 
- x98x0x1
- x98x147x1 - x98x66x1 - x98x2x1 - x98x8x1 
= 0
x137x98x2 + x149x98x2 + x43x98x2 + x83x98x2 
- x98x0x2
- x98x66x2 - x98x94x2 - x98x13x2 
= 0


x171x147x1 + x107x147x1 + x92x147x1 + x138x147x1 + x109x147x1 + x16x147x1 + x22x147x1 + x34x147x1 + x49x147x1 + x52x147x1 + x68x147x1 + x72x147x1 + x135x147x1 + x163x147x1 + x170x147x1 + x98x147x1 
- x147x0x1
- x147x66x1 - x147x8x1 
= 0

x23x147x3 + x114x147x3 + x122x147x3 + x137x147x3 + x7x147x3 + x5x147x3 + x16x147x3 + x22x147x3 + x84x147x3 + x135x147x3 + x142x147x3 + x155x147x3 + x163x147x3 
- x147x0x3
- x147x13x3 
= 0

x171x66x1 + x107x66x1 + x92x66x1 + x138x66x1 + x109x66x1 + x16x66x1 + x22x66x1 + x34x66x1 + x49x66x1 + x52x66x1 + x68x66x1 + x72x66x1 + x135x66x1 + x163x66x1 + x170x66x1 + x98x66x1 + x147x66x1 
- x66x0x1
- x66x8x1 
= 0
x23x66x2 + x92x66x2 + x137x66x2 + x149x66x2 + x43x66x2 + x83x66x2 + x5x66x2 + x49x66x2 + x52x66x2 + x72x66x2 + x100x66x2 + x108x66x2 + x112x66x2 + x134x66x2 + x155x66x2 + x165x66x2 + x98x66x2 
- x66x0x2
- x66x94x2 - x66x13x2 
= 0



x23x94x2 + x92x94x2 + x137x94x2 + x149x94x2 + x43x94x2 + x83x94x2 + x5x94x2 + x49x94x2 + x52x94x2 + x72x94x2 + x100x94x2 + x108x94x2 + x112x94x2 + x134x94x2 + x155x94x2 + x165x94x2 + x98x94x2 + x66x94x2 
- x94x0x2

= 0


x171x2x1 + x107x2x1 + x92x2x1 + x138x2x1 + x109x2x1 + x16x2x1 + x22x2x1 + x34x2x1 + x49x2x1 + x52x2x1 + x68x2x1 + x72x2x1 + x135x2x1 + x163x2x1 + x170x2x1 + x98x2x1 
- x2x0x1

= 0

x23x2x3 + x114x2x3 + x122x2x3 + x137x2x3 + x7x2x3 + x5x2x3 + x16x2x3 + x22x2x3 + x84x2x3 + x135x2x3 + x142x2x3 + x155x2x3 + x163x2x3 
- x2x0x3

= 0

x171x8x1 + x107x8x1 + x92x8x1 + x138x8x1 + x109x8x1 + x16x8x1 + x22x8x1 + x34x8x1 + x49x8x1 + x52x8x1 + x68x8x1 + x72x8x1 + x135x8x1 + x163x8x1 + x170x8x1 + x98x8x1 + x147x8x1 + x66x8x1 
- x8x0x1

= 0




x23x13x2 + x92x13x2 + x137x13x2 + x149x13x2 + x43x13x2 + x83x13x2 + x5x13x2 + x49x13x2 + x52x13x2 + x72x13x2 + x100x13x2 + x108x13x2 + x112x13x2 + x134x13x2 + x155x13x2 + x165x13x2 + x98x13x2 + x66x13x2 
- x13x0x2

= 0
x23x13x3 + x114x13x3 + x122x13x3 + x137x13x3 + x7x13x3 + x5x13x3 + x16x13x3 + x22x13x3 + x84x13x3 + x135x13x3 + x142x13x3 + x155x13x3 + x163x13x3 + x147x13x3 
- x13x0x3

= 0

1y5 - x83x5x2 = 0
1y5 = 0
1y16 - x138x16x1 - x109x16x1 = 0
1y16 - x114x16x3 = 0
1y22 - x138x22x1 - x109x22x1 = 0
1y22 - x114x22x3 - x122x22x3 - x137x22x3 - x7x22x3 = 0
2y34 - x138x34x1 = 0
1y49 - x107x49x1 - x138x49x1 - x109x49x1 = 0
1y49 - x137x49x2 - x149x49x2 - x43x49x2 - x83x49x2 = 0
1y52 = 0
1y52 = 0
2y68 - x138x68x1 - x109x68x1 = 0
1y72 - x138x72x1 = 0
1y72 - x83x72x2 = 0
2y84 - x114x84x3 - x122x84x3 - x137x84x3 - x7x84x3 = 0
2y100 - x137x100x2 - x149x100x2 - x43x100x2 - x83x100x2 = 0
2y108 - x137x108x2 - x149x108x2 - x43x108x2 - x83x108x2 = 0
2y112 = 0
2y134 = 0
1y135 - x138x135x1 - x109x135x1 = 0
1y135 - x114x135x3 - x122x135x3 - x137x135x3 - x7x135x3 = 0
2y142 - x114x142x3 - x122x142x3 - x137x142x3 - x7x142x3 = 0
1y155 - x137x155x2 - x149x155x2 - x43x155x2 - x83x155x2 = 0
1y155 - x114x155x3 - x122x155x3 - x137x155x3 - x7x155x3 = 0
1y163 - x107x163x1 - x138x163x1 - x109x163x1 = 0
1y163 - x114x163x3 - x122x163x3 - x137x163x3 - x7x163x3 = 0
2y165 - x83x165x2 = 0
2y170 - x107x170x1 - x138x170x1 - x109x170x1 = 0
1y98 - x107x98x1 - x138x98x1 - x109x98x1 = 0
1y98 - x137x98x2 - x149x98x2 - x43x98x2 - x83x98x2 = 0
1y147 - x171x147x1 - x107x147x1 - x92x147x1 - x138x147x1 - x109x147x1 - x16x147x1 - x22x147x1 - x34x147x1 - x49x147x1 - x52x147x1 - x68x147x1 - x72x147x1 - x135x147x1 - x163x147x1 - x170x147x1 - x98x147x1 = 0
1y147 - x23x147x3 - x114x147x3 - x122x147x3 - x137x147x3 - x7x147x3 - x5x147x3 - x16x147x3 - x22x147x3 - x84x147x3 - x135x147x3 - x142x147x3 - x155x147x3 - x163x147x3 = 0
1y66 - x171x66x1 - x107x66x1 - x92x66x1 - x138x66x1 - x109x66x1 - x16x66x1 - x22x66x1 - x34x66x1 - x49x66x1 - x52x66x1 - x68x66x1 - x72x66x1 - x135x66x1 - x163x66x1 - x170x66x1 - x98x66x1 - x147x66x1 = 0
1y66 - x23x66x2 - x92x66x2 - x137x66x2 - x149x66x2 - x43x66x2 - x83x66x2 - x5x66x2 - x49x66x2 - x52x66x2 - x72x66x2 - x100x66x2 - x108x66x2 - x112x66x2 - x134x66x2 - x155x66x2 - x165x66x2 - x98x66x2 = 0
2y94 - x23x94x2 - x92x94x2 - x137x94x2 - x149x94x2 - x43x94x2 - x83x94x2 - x5x94x2 - x49x94x2 - x52x94x2 - x72x94x2 - x100x94x2 - x108x94x2 - x112x94x2 - x134x94x2 - x155x94x2 - x165x94x2 - x98x94x2 - x66x94x2 = 0
1y2 - x171x2x1 - x107x2x1 - x92x2x1 - x138x2x1 - x109x2x1 - x16x2x1 - x22x2x1 - x34x2x1 - x49x2x1 - x52x2x1 - x68x2x1 - x72x2x1 - x135x2x1 - x163x2x1 - x170x2x1 - x98x2x1 = 0
1y2 - x23x2x3 - x114x2x3 - x122x2x3 - x137x2x3 - x7x2x3 - x5x2x3 - x16x2x3 - x22x2x3 - x84x2x3 - x135x2x3 - x142x2x3 - x155x2x3 - x163x2x3 = 0
2y8 - x171x8x1 - x107x8x1 - x92x8x1 - x138x8x1 - x109x8x1 - x16x8x1 - x22x8x1 - x34x8x1 - x49x8x1 - x52x8x1 - x68x8x1 - x72x8x1 - x135x8x1 - x163x8x1 - x170x8x1 - x98x8x1 - x147x8x1 - x66x8x1 = 0
1y13 - x23x13x2 - x92x13x2 - x137x13x2 - x149x13x2 - x43x13x2 - x83x13x2 - x5x13x2 - x49x13x2 - x52x13x2 - x72x13x2 - x100x13x2 - x108x13x2 - x112x13x2 - x134x13x2 - x155x13x2 - x165x13x2 - x98x13x2 - x66x13x2 = 0
1y13 - x23x13x3 - x114x13x3 - x122x13x3 - x137x13x3 - x7x13x3 - x5x13x3 - x16x13x3 - x22x13x3 - x84x13x3 - x135x13x3 - x142x13x3 - x155x13x3 - x163x13x3 - x147x13x3 = 0

s23 - s147 + 7.431892z23z147z3 <= 5.96
s23 - s66 + 7.445344z23z66z2 <= 5.96
s23 - s94 + 7.499876z23z94z2 <= 5.96
s23 - s2 + 7.545623z23z2z3 <= 5.96
s23 - s13 + 7.470661z23z13z2 <= 5.96
s23 - s13 + 7.470661z23z13z3 <= 5.96
s171 - s147 + 7.247928z171z147z1 <= 5.83
s171 - s66 + 7.261122z171z66z1 <= 5.83
s171 - s2 + 7.369446z171z2z1 <= 5.83
s171 - s8 + 7.306541z171z8z1 <= 5.83
s107 - s49 + 6.761577z107z49z1 <= 5.53
s107 - s163 + 6.765450z107z163z1 <= 5.53
s107 - s170 + 6.746633z107z170z1 <= 5.53
s107 - s98 + 6.738100z107z98z1 <= 5.53
s107 - s147 + 6.930571z107z147z1 <= 5.53
s107 - s66 + 6.945477z107z66z1 <= 5.53
s107 - s2 + 6.980746z107z2z1 <= 5.53
s107 - s8 + 6.993257z107z8z1 <= 5.53
s92 - s147 + 7.137572z92z147z1 <= 5.69
s92 - s66 + 7.150545z92z66z1 <= 5.69
s92 - s66 + 7.150545z92z66z2 <= 5.69
s92 - s94 + 7.206035z92z94z2 <= 5.69
s92 - s2 + 7.261619z92z2z1 <= 5.69
s92 - s8 + 7.195459z92z8z1 <= 5.69
s92 - s13 + 7.173248z92z13z2 <= 5.69
s138 - s16 + 6.180424z138z16z1 <= 4.35
s138 - s22 + 6.162600z138z22z1 <= 4.35
s138 - s34 + 6.174327z138z34z1 <= 4.35
s138 - s49 + 6.173542z138z49z1 <= 4.35
s138 - s68 + 6.207088z138z68z1 <= 4.35
s138 - s72 + 6.242345z138z72z1 <= 4.35
s138 - s135 + 6.155038z138z135z1 <= 4.35
s138 - s163 + 6.160647z138z163z1 <= 4.35
s138 - s170 + 6.144739z138z170z1 <= 4.35
s138 - s98 + 6.116831z138z98z1 <= 4.35
s138 - s147 + 6.233296z138z147z1 <= 4.35
s138 - s66 + 6.245116z138z66z1 <= 4.35
s138 - s2 + 6.365798z138z2z1 <= 4.35
s138 - s8 + 6.287007z138z8z1 <= 4.35
s114 - s16 + 6.282157z114z16z3 <= 4.96
s114 - s22 + 6.410264z114z22z3 <= 4.96
s114 - s84 + 6.479454z114z84z3 <= 4.96
s114 - s135 + 6.403071z114z135z3 <= 4.96
s114 - s142 + 6.442966z114z142z3 <= 4.96
s114 - s155 + 6.419097z114z155z3 <= 4.96
s114 - s163 + 6.469178z114z163z3 <= 4.96
s114 - s147 + 6.669262z114z147z3 <= 4.96
s114 - s2 + 6.621675z114z2z3 <= 4.96
s114 - s13 + 6.729201z114z13z3 <= 4.96
s122 - s22 + 6.455180z122z22z3 <= 5.04
s122 - s84 + 6.522577z122z84z3 <= 5.04
s122 - s135 + 6.448567z122z135z3 <= 5.04
s122 - s142 + 6.488563z122z142z3 <= 5.04
s122 - s155 + 6.462316z122z155z3 <= 5.04
s122 - s163 + 6.515365z122z163z3 <= 5.04
s122 - s147 + 6.715213z122z147z3 <= 5.04
s122 - s2 + 6.657898z122z2z3 <= 5.04
s122 - s13 + 6.775210z122z13z3 <= 5.04
s137 - s22 + 6.498237z137z22z3 <= 4.99
s137 - s49 + 6.524010z137z49z2 <= 4.99
s137 - s84 + 6.562296z137z84z3 <= 4.99
s137 - s100 + 6.533950z137z100z2 <= 4.99
s137 - s108 + 6.571115z137z108z2 <= 4.99
s137 - s135 + 6.492467z137z135z3 <= 4.99
s137 - s142 + 6.532134z137z142z3 <= 4.99
s137 - s155 + 6.502893z137z155z2 <= 4.99
s137 - s155 + 6.502893z137z155z3 <= 4.99
s137 - s163 + 6.559431z137z163z3 <= 4.99
s137 - s98 + 6.573883z137z98z2 <= 4.99
s137 - s147 + 6.757568z137z147z3 <= 4.99
s137 - s66 + 6.770308z137z66z2 <= 4.99
s137 - s94 + 6.788012z137z94z2 <= 4.99
s137 - s2 + 6.682965z137z2z3 <= 4.99
s137 - s13 + 6.817355z137z13z2 <= 4.99
s137 - s13 + 6.817355z137z13z3 <= 4.99
s149 - s49 + 6.346150z149z49z2 <= 4.82
s149 - s100 + 6.322021z149z100z2 <= 4.82
s149 - s108 + 6.352916z149z108z2 <= 4.82
s149 - s155 + 6.354780z149z155z2 <= 4.82
s149 - s98 + 6.294168z149z98z2 <= 4.82
s149 - s66 + 6.446776z149z66z2 <= 4.82
s149 - s94 + 6.501753z149z94z2 <= 4.82
s149 - s13 + 6.470413z149z13z2 <= 4.82
s109 - s16 + 6.284654z109z16z1 <= 5.04
s109 - s22 + 6.413084z109z22z1 <= 5.04
s109 - s49 + 6.440187z109z49z1 <= 5.04
s109 - s68 + 6.291782z109z68z1 <= 5.04
s109 - s135 + 6.406012z109z135z1 <= 5.04
s109 - s163 + 6.472338z109z163z1 <= 5.04
s109 - s170 + 6.458800z109z170z1 <= 5.04
s109 - s98 + 6.480061z109z98z1 <= 5.04
s109 - s147 + 6.672449z109z147z1 <= 5.04
s109 - s66 + 6.686016z109z66z1 <= 5.04
s109 - s2 + 6.624936z109z2z1 <= 5.04
s109 - s8 + 6.727534z109z8z1 <= 5.04
s7 - s22 + 6.684106z7z22z3 <= 5.26
s7 - s84 + 6.749927z7z84z3 <= 5.26
s7 - s135 + 6.677935z7z135z3 <= 5.26
s7 - s142 + 6.717817z7z142z3 <= 5.26
s7 - s155 + 6.689979z7z155z3 <= 5.26
s7 - s163 + 6.744924z7z163z3 <= 5.26
s7 - s147 + 6.944077z7z147z3 <= 5.26
s7 - s2 + 6.879377z7z2z3 <= 5.26
s7 - s13 + 7.004010z7z13z3 <= 5.26
s43 - s49 + 6.727420z43z49z2 <= 5.25
s43 - s100 + 6.737007z43z100z2 <= 5.25
s43 - s108 + 6.774489z43z108z2 <= 5.25
s43 - s155 + 6.706517z43z155z2 <= 5.25
s43 - s98 + 6.776698z43z98z2 <= 5.25
s43 - s66 + 6.973911z43z66z2 <= 5.25
s43 - s94 + 6.992430z43z94z2 <= 5.25
s43 - s13 + 7.020919z43z13z2 <= 5.25
s83 - s5 + 6.231089z83z5z2 <= 5.00
s83 - s49 + 6.397400z83z49z2 <= 5.00
s83 - s72 + 6.214564z83z72z2 <= 5.00
s83 - s100 + 6.403622z83z100z2 <= 5.00
s83 - s108 + 6.443766z83z108z2 <= 5.00
s83 - s155 + 6.378359z83z155z2 <= 5.00
s83 - s165 + 6.229757z83z165z2 <= 5.00
s83 - s98 + 6.439368z83z98z2 <= 5.00
s83 - s66 + 6.643704z83z66z2 <= 5.00
s83 - s94 + 6.666892z83z94z2 <= 5.00
s83 - s13 + 6.690266z83z13z2 <= 5.00
s5 - s147 + 7.660223z5z147z3 <= 6.26
s5 - s66 + 7.673388z5z66z2 <= 6.26
s5 - s94 + 7.695839z5z94z2 <= 6.26
s5 - s2 + 7.617771z5z2z3 <= 6.26
s5 - s13 + 7.720193z5z13z2 <= 6.26
s5 - s13 + 7.720193z5z13z3 <= 6.26
s16 - s147 + 7.684743z16z147z1 <= 6.29
s16 - s147 + 7.684743z16z147z3 <= 6.29
s16 - s66 + 7.697540z16z66z1 <= 6.29
s16 - s2 + 7.633188z16z2z1 <= 6.29
s16 - s2 + 7.633188z16z2z3 <= 6.29
s16 - s8 + 7.736667z16z8z1 <= 6.29
s16 - s13 + 7.744557z16z13z3 <= 6.29
s22 - s147 + 7.980085z22z147z1 <= 6.72
s22 - s147 + 7.980085z22z147z3 <= 6.72
s22 - s66 + 7.993333z22z66z1 <= 6.72
s22 - s2 + 7.965312z22z2z1 <= 6.72
s22 - s2 + 7.965312z22z2z3 <= 6.72
s22 - s8 + 8.034466z22z8z1 <= 6.72
s22 - s13 + 8.040070z22z13z3 <= 6.72
s34 - s147 + 7.634192z34z147z1 <= 6.22
s34 - s66 + 7.647135z34z66z1 <= 6.22
s34 - s2 + 7.584173z34z2z1 <= 6.22
s34 - s8 + 7.686714z34z8z1 <= 6.22
s49 - s147 + 8.033714z49z147z1 <= 6.80
s49 - s66 + 8.046757z49z66z1 <= 6.80
s49 - s66 + 8.046757z49z66z2 <= 6.80
s49 - s94 + 8.070720z49z94z2 <= 6.80
s49 - s2 + 8.021610z49z2z1 <= 6.80
s49 - s8 + 8.087364z49z8z1 <= 6.80
s49 - s13 + 8.093637z49z13z2 <= 6.80
s52 - s147 + 7.573896z52z147z1 <= 6.11
s52 - s66 + 7.586329z52z66z1 <= 6.11
s52 - s66 + 7.586329z52z66z2 <= 6.11
s52 - s94 + 7.603333z52z94z2 <= 6.11
s52 - s2 + 7.506541z52z2z1 <= 6.11
s52 - s8 + 7.624025z52z8z1 <= 6.11
s52 - s13 + 7.633451z52z13z2 <= 6.11
s68 - s147 + 7.717884z68z147z1 <= 6.32
s68 - s66 + 7.730149z68z66z1 <= 6.32
s68 - s2 + 7.653200z68z2z1 <= 6.32
s68 - s8 + 7.767462z68z8z1 <= 6.32
s72 - s147 + 7.709790z72z147z1 <= 6.26
s72 - s66 + 7.721543z72z66z1 <= 6.26
s72 - s66 + 7.721543z72z66z2 <= 6.26
s72 - s94 + 7.734506z72z94z2 <= 6.26
s72 - s2 + 7.628782z72z2z1 <= 6.26
s72 - s8 + 7.756969z72z8z1 <= 6.26
s72 - s13 + 7.768637z72z13z2 <= 6.26
s84 - s147 + 8.136186z84z147z3 <= 6.94
s84 - s2 + 8.120124z84z2z3 <= 6.94
s84 - s13 + 8.195517z84z13z3 <= 6.94
s100 - s66 + 8.080832z100z66z2 <= 6.84
s100 - s94 + 8.110144z100z94z2 <= 6.84
s100 - s13 + 8.126977z100z13z2 <= 6.84
s108 - s66 + 8.160000z108z66z2 <= 6.96
s108 - s94 + 8.186373z108z94z2 <= 6.96
s108 - s13 + 8.206757z108z13z2 <= 6.96
s112 - s66 + 7.596866z112z66z2 <= 6.15
s112 - s94 + 7.618378z112z94z2 <= 6.15
s112 - s13 + 7.643739z112z13z2 <= 6.15
s134 - s66 + 7.514952z134z66z2 <= 6.02
s134 - s94 + 7.533506z134z94z2 <= 6.02
s134 - s13 + 7.562013z134z13z2 <= 6.02
s135 - s147 + 7.966666z135z147z1 <= 6.70
s135 - s147 + 7.966666z135z147z3 <= 6.70
s135 - s66 + 7.980079z135z66z1 <= 6.70
s135 - s2 + 7.954733z135z2z1 <= 6.70
s135 - s2 + 7.954733z135z2z3 <= 6.70
s135 - s8 + 8.021731z135z8z1 <= 6.70
s135 - s13 + 8.026667z135z13z3 <= 6.70
s142 - s147 + 8.056666z142z147z3 <= 6.83
s142 - s2 + 8.057058z142z2z3 <= 6.83
s142 - s13 + 8.116667z142z13z3 <= 6.83
s155 - s147 + 7.994733z155z147z3 <= 6.74
s155 - s66 + 8.007416z155z66z2 <= 6.74
s155 - s94 + 8.028598z155z94z2 <= 6.74
s155 - s2 + 7.967058z155z2z3 <= 6.74
s155 - s13 + 8.054466z155z13z2 <= 6.74
s155 - s13 + 8.054466z155z13z3 <= 6.74
s163 - s147 + 8.120111z163z147z1 <= 6.92
s163 - s147 + 8.120111z163z147z3 <= 6.92
s163 - s66 + 8.133750z163z66z1 <= 6.92
s163 - s2 + 8.136333z163z2z1 <= 6.92
s163 - s2 + 8.136333z163z2z3 <= 6.92
s163 - s8 + 8.176472z163z8z1 <= 6.92
s163 - s13 + 8.180085z163z13z3 <= 6.92
s165 - s66 + 7.681901z165z66z2 <= 6.26
s165 - s94 + 7.700202z165z94z2 <= 6.26
s165 - s13 + 7.728994z165z13z2 <= 6.26
s170 - s147 + 8.104269z170z147z1 <= 6.89
s170 - s66 + 8.118230z170z66z1 <= 6.89
s170 - s2 + 8.124852z170z2z1 <= 6.89
s170 - s8 + 8.161947z170z8z1 <= 6.89
s98 - s147 + 8.210555z98z147z1 <= 7.01
s98 - s66 + 8.225201z98z66z1 <= 7.01
s98 - s66 + 8.225201z98z66z2 <= 7.01
s98 - s94 + 8.263421z98z94z2 <= 7.01
s98 - s2 + 8.263421z98z2z1 <= 7.01
s98 - s8 + 8.271449z98z8z1 <= 7.01
s98 - s13 + 8.268887z98z13z2 <= 7.01
s147 - s66 + 8.584908z147z66z1 <= 7.57
s147 - s8 + 8.632894z147z8z1 <= 7.57
s147 - s13 + 8.630000z147z13z3 <= 7.57
s66 - s94 + 8.666960z66z94z2 <= 7.61
s66 - s8 + 8.658074z66z8z1 <= 7.61
s66 - s13 + 8.657141z66z13z2 <= 7.61

x23x147x3 - 1z23z147z3 <= 0
x23x66x2 - 1z23z66z2 <= 0
x23x94x2 - 2z23z94z2 <= 0
x23x2x3 - 1z23z2z3 <= 0
x23x13x2 - 1z23z13z2 <= 0
x23x13x3 - 1z23z13z3 <= 0
x171x147x1 - 1z171z147z1 <= 0
x171x66x1 - 1z171z66z1 <= 0
x171x2x1 - 1z171z2z1 <= 0
x171x8x1 - 2z171z8z1 <= 0
x107x49x1 - 1z107z49z1 <= 0
x107x163x1 - 1z107z163z1 <= 0
x107x170x1 - 2z107z170z1 <= 0
x107x98x1 - 1z107z98z1 <= 0
x107x147x1 - 1z107z147z1 <= 0
x107x66x1 - 1z107z66z1 <= 0
x107x2x1 - 1z107z2z1 <= 0
x107x8x1 - 2z107z8z1 <= 0
x92x147x1 - 1z92z147z1 <= 0
x92x66x1 - 1z92z66z1 <= 0
x92x66x2 - 1z92z66z2 <= 0
x92x94x2 - 2z92z94z2 <= 0
x92x2x1 - 1z92z2z1 <= 0
x92x8x1 - 2z92z8z1 <= 0
x92x13x2 - 1z92z13z2 <= 0
x138x16x1 - 1z138z16z1 <= 0
x138x22x1 - 1z138z22z1 <= 0
x138x34x1 - 2z138z34z1 <= 0
x138x49x1 - 1z138z49z1 <= 0
x138x68x1 - 2z138z68z1 <= 0
x138x72x1 - 1z138z72z1 <= 0
x138x135x1 - 1z138z135z1 <= 0
x138x163x1 - 1z138z163z1 <= 0
x138x170x1 - 2z138z170z1 <= 0
x138x98x1 - 1z138z98z1 <= 0
x138x147x1 - 1z138z147z1 <= 0
x138x66x1 - 1z138z66z1 <= 0
x138x2x1 - 1z138z2z1 <= 0
x138x8x1 - 2z138z8z1 <= 0
x114x16x3 - 1z114z16z3 <= 0
x114x22x3 - 1z114z22z3 <= 0
x114x84x3 - 2z114z84z3 <= 0
x114x135x3 - 1z114z135z3 <= 0
x114x142x3 - 2z114z142z3 <= 0
x114x155x3 - 1z114z155z3 <= 0
x114x163x3 - 1z114z163z3 <= 0
x114x147x3 - 1z114z147z3 <= 0
x114x2x3 - 1z114z2z3 <= 0
x114x13x3 - 1z114z13z3 <= 0
x122x22x3 - 1z122z22z3 <= 0
x122x84x3 - 2z122z84z3 <= 0
x122x135x3 - 1z122z135z3 <= 0
x122x142x3 - 2z122z142z3 <= 0
x122x155x3 - 1z122z155z3 <= 0
x122x163x3 - 1z122z163z3 <= 0
x122x147x3 - 1z122z147z3 <= 0
x122x2x3 - 1z122z2z3 <= 0
x122x13x3 - 1z122z13z3 <= 0
x137x22x3 - 1z137z22z3 <= 0
x137x49x2 - 1z137z49z2 <= 0
x137x84x3 - 2z137z84z3 <= 0
x137x100x2 - 2z137z100z2 <= 0
x137x108x2 - 2z137z108z2 <= 0
x137x135x3 - 1z137z135z3 <= 0
x137x142x3 - 2z137z142z3 <= 0
x137x155x2 - 1z137z155z2 <= 0
x137x155x3 - 1z137z155z3 <= 0
x137x163x3 - 1z137z163z3 <= 0
x137x98x2 - 1z137z98z2 <= 0
x137x147x3 - 1z137z147z3 <= 0
x137x66x2 - 1z137z66z2 <= 0
x137x94x2 - 2z137z94z2 <= 0
x137x2x3 - 1z137z2z3 <= 0
x137x13x2 - 1z137z13z2 <= 0
x137x13x3 - 1z137z13z3 <= 0
x149x49x2 - 1z149z49z2 <= 0
x149x100x2 - 2z149z100z2 <= 0
x149x108x2 - 2z149z108z2 <= 0
x149x155x2 - 1z149z155z2 <= 0
x149x98x2 - 1z149z98z2 <= 0
x149x66x2 - 1z149z66z2 <= 0
x149x94x2 - 2z149z94z2 <= 0
x149x13x2 - 1z149z13z2 <= 0
x109x16x1 - 1z109z16z1 <= 0
x109x22x1 - 1z109z22z1 <= 0
x109x49x1 - 1z109z49z1 <= 0
x109x68x1 - 2z109z68z1 <= 0
x109x135x1 - 1z109z135z1 <= 0
x109x163x1 - 1z109z163z1 <= 0
x109x170x1 - 2z109z170z1 <= 0
x109x98x1 - 1z109z98z1 <= 0
x109x147x1 - 1z109z147z1 <= 0
x109x66x1 - 1z109z66z1 <= 0
x109x2x1 - 1z109z2z1 <= 0
x109x8x1 - 2z109z8z1 <= 0
x7x22x3 - 1z7z22z3 <= 0
x7x84x3 - 2z7z84z3 <= 0
x7x135x3 - 1z7z135z3 <= 0
x7x142x3 - 2z7z142z3 <= 0
x7x155x3 - 1z7z155z3 <= 0
x7x163x3 - 1z7z163z3 <= 0
x7x147x3 - 1z7z147z3 <= 0
x7x2x3 - 1z7z2z3 <= 0
x7x13x3 - 1z7z13z3 <= 0
x43x49x2 - 1z43z49z2 <= 0
x43x100x2 - 2z43z100z2 <= 0
x43x108x2 - 2z43z108z2 <= 0
x43x155x2 - 1z43z155z2 <= 0
x43x98x2 - 1z43z98z2 <= 0
x43x66x2 - 1z43z66z2 <= 0
x43x94x2 - 2z43z94z2 <= 0
x43x13x2 - 1z43z13z2 <= 0
x83x5x2 - 1z83z5z2 <= 0
x83x49x2 - 1z83z49z2 <= 0
x83x72x2 - 1z83z72z2 <= 0
x83x100x2 - 2z83z100z2 <= 0
x83x108x2 - 2z83z108z2 <= 0
x83x155x2 - 1z83z155z2 <= 0
x83x165x2 - 2z83z165z2 <= 0
x83x98x2 - 1z83z98z2 <= 0
x83x66x2 - 1z83z66z2 <= 0
x83x94x2 - 2z83z94z2 <= 0
x83x13x2 - 1z83z13z2 <= 0
x5x147x3 - 1z5z147z3 <= 0
x5x66x2 - 1z5z66z2 <= 0
x5x94x2 - 2z5z94z2 <= 0
x5x2x3 - 1z5z2z3 <= 0
x5x13x2 - 1z5z13z2 <= 0
x5x13x3 - 1z5z13z3 <= 0
x5x0x2 <= 1
x5x0x3 <= 1
x16x147x1 - 1z16z147z1 <= 0
x16x147x3 - 1z16z147z3 <= 0
x16x66x1 - 1z16z66z1 <= 0
x16x2x1 - 1z16z2z1 <= 0
x16x2x3 - 1z16z2z3 <= 0
x16x8x1 - 2z16z8z1 <= 0
x16x13x3 - 1z16z13z3 <= 0
x16x0x1 <= 1
x16x0x3 <= 1
x22x147x1 - 1z22z147z1 <= 0
x22x147x3 - 1z22z147z3 <= 0
x22x66x1 - 1z22z66z1 <= 0
x22x2x1 - 1z22z2z1 <= 0
x22x2x3 - 1z22z2z3 <= 0
x22x8x1 - 2z22z8z1 <= 0
x22x13x3 - 1z22z13z3 <= 0
x22x0x1 <= 1
x22x0x3 <= 1
x34x147x1 - 1z34z147z1 <= 0
x34x66x1 - 1z34z66z1 <= 0
x34x2x1 - 1z34z2z1 <= 0
x34x8x1 - 2z34z8z1 <= 0
x34x0x1 <= 2
x49x147x1 - 1z49z147z1 <= 0
x49x66x1 - 1z49z66z1 <= 0
x49x66x2 - 1z49z66z2 <= 0
x49x94x2 - 2z49z94z2 <= 0
x49x2x1 - 1z49z2z1 <= 0
x49x8x1 - 2z49z8z1 <= 0
x49x13x2 - 1z49z13z2 <= 0
x49x0x1 <= 1
x49x0x2 <= 1
x52x147x1 - 1z52z147z1 <= 0
x52x66x1 - 1z52z66z1 <= 0
x52x66x2 - 1z52z66z2 <= 0
x52x94x2 - 2z52z94z2 <= 0
x52x2x1 - 1z52z2z1 <= 0
x52x8x1 - 2z52z8z1 <= 0
x52x13x2 - 1z52z13z2 <= 0
x52x0x1 <= 1
x52x0x2 <= 1
x68x147x1 - 1z68z147z1 <= 0
x68x66x1 - 1z68z66z1 <= 0
x68x2x1 - 1z68z2z1 <= 0
x68x8x1 - 2z68z8z1 <= 0
x68x0x1 <= 2
x72x147x1 - 1z72z147z1 <= 0
x72x66x1 - 1z72z66z1 <= 0
x72x66x2 - 1z72z66z2 <= 0
x72x94x2 - 2z72z94z2 <= 0
x72x2x1 - 1z72z2z1 <= 0
x72x8x1 - 2z72z8z1 <= 0
x72x13x2 - 1z72z13z2 <= 0
x72x0x1 <= 1
x72x0x2 <= 1
x84x147x3 - 1z84z147z3 <= 0
x84x2x3 - 1z84z2z3 <= 0
x84x13x3 - 1z84z13z3 <= 0
x84x0x3 <= 2
x100x66x2 - 1z100z66z2 <= 0
x100x94x2 - 2z100z94z2 <= 0
x100x13x2 - 1z100z13z2 <= 0
x100x0x2 <= 2
x108x66x2 - 1z108z66z2 <= 0
x108x94x2 - 2z108z94z2 <= 0
x108x13x2 - 1z108z13z2 <= 0
x108x0x2 <= 2
x112x66x2 - 1z112z66z2 <= 0
x112x94x2 - 2z112z94z2 <= 0
x112x13x2 - 1z112z13z2 <= 0
x112x0x2 <= 2
x134x66x2 - 1z134z66z2 <= 0
x134x94x2 - 2z134z94z2 <= 0
x134x13x2 - 1z134z13z2 <= 0
x134x0x2 <= 2
x135x147x1 - 1z135z147z1 <= 0
x135x147x3 - 1z135z147z3 <= 0
x135x66x1 - 1z135z66z1 <= 0
x135x2x1 - 1z135z2z1 <= 0
x135x2x3 - 1z135z2z3 <= 0
x135x8x1 - 2z135z8z1 <= 0
x135x13x3 - 1z135z13z3 <= 0
x135x0x1 <= 1
x135x0x3 <= 1
x142x147x3 - 1z142z147z3 <= 0
x142x2x3 - 1z142z2z3 <= 0
x142x13x3 - 1z142z13z3 <= 0
x142x0x3 <= 2
x155x147x3 - 1z155z147z3 <= 0
x155x66x2 - 1z155z66z2 <= 0
x155x94x2 - 2z155z94z2 <= 0
x155x2x3 - 1z155z2z3 <= 0
x155x13x2 - 1z155z13z2 <= 0
x155x13x3 - 1z155z13z3 <= 0
x155x0x2 <= 1
x155x0x3 <= 1
x163x147x1 - 1z163z147z1 <= 0
x163x147x3 - 1z163z147z3 <= 0
x163x66x1 - 1z163z66z1 <= 0
x163x2x1 - 1z163z2z1 <= 0
x163x2x3 - 1z163z2z3 <= 0
x163x8x1 - 2z163z8z1 <= 0
x163x13x3 - 1z163z13z3 <= 0
x163x0x1 <= 1
x163x0x3 <= 1
x165x66x2 - 1z165z66z2 <= 0
x165x94x2 - 2z165z94z2 <= 0
x165x13x2 - 1z165z13z2 <= 0
x165x0x2 <= 2
x170x147x1 - 1z170z147z1 <= 0
x170x66x1 - 1z170z66z1 <= 0
x170x2x1 - 1z170z2z1 <= 0
x170x8x1 - 2z170z8z1 <= 0
x170x0x1 <= 2
x98x147x1 - 1z98z147z1 <= 0
x98x66x1 - 1z98z66z1 <= 0
x98x66x2 - 1z98z66z2 <= 0
x98x94x2 - 2z98z94z2 <= 0
x98x2x1 - 1z98z2z1 <= 0
x98x8x1 - 2z98z8z1 <= 0
x98x13x2 - 1z98z13z2 <= 0
x98x0x1 <= 1
x98x0x2 <= 1
x147x66x1 - 1z147z66z1 <= 0
x147x8x1 - 2z147z8z1 <= 0
x147x13x3 - 1z147z13z3 <= 0
x147x0x1 <= 1
x147x0x3 <= 1
x66x94x2 - 2z66z94z2 <= 0
x66x8x1 - 2z66z8z1 <= 0
x66x13x2 - 1z66z13z2 <= 0
x66x0x1 <= 1
x66x0x2 <= 1
x94x0x2 <= 2
x2x0x1 <= 1
x2x0x3 <= 1
x8x0x1 <= 2
x13x0x2 <= 1
x13x0x3 <= 1

Bounds
s23 = 5.961195
s171 = 5.831755
s107 = 5.534030
s92 = 5.690110
s138 = 4.353650
s114 = 4.961810
s122 = 5.035180
s137 = 4.994650
s149 = 4.817420
s109 = 5.038800
s7 = 5.263260
s43 = 5.252400
s83 = 4.996900
6.000000 <= s5 <= 6.260000
6.000000 <= s16 <= 6.290000
6.000000 <= s22 <= 6.720000
6.000000 <= s34 <= 6.220000
6.000000 <= s49 <= 6.800000
6.000000 <= s52 <= 6.110000
6.000000 <= s68 <= 6.320000
6.000000 <= s72 <= 6.260000
6.000000 <= s84 <= 6.940000
6.000000 <= s100 <= 6.840000
6.000000 <= s108 <= 6.960000
6.000000 <= s112 <= 6.150000
6.000000 <= s134 <= 6.020000
6.000000 <= s135 <= 6.700000
6.000000 <= s142 <= 6.830000
6.000000 <= s155 <= 6.740000
6.000000 <= s163 <= 6.920000
6.000000 <= s165 <= 6.260000
6.000000 <= s170 <= 6.890000
6.010000 <= s98 <= 7.010000
6.570000 <= s147 <= 7.570000
6.610000 <= s66 <= 7.610000
6.710000 <= s94 <= 7.710000
6.730000 <= s2 <= 7.730000
6.750000 <= s8 <= 7.750000
6.760000 <= s13 <= 7.760000

General
x23x147x3 x23x66x2 x23x94x2 x23x2x3 x23x13x2 x23x13x3 
x171x147x1 x171x66x1 x171x2x1 x171x8x1 
x107x49x1 x107x163x1 x107x170x1 x107x98x1 x107x147x1 x107x66x1 x107x2x1 x107x8x1 
x92x147x1 x92x66x1 x92x66x2 x92x94x2 x92x2x1 x92x8x1 x92x13x2 
x138x16x1 x138x22x1 x138x34x1 x138x49x1 x138x68x1 x138x72x1 x138x135x1 x138x163x1 x138x170x1 x138x98x1 x138x147x1 x138x66x1 x138x2x1 x138x8x1 
x114x16x3 x114x22x3 x114x84x3 x114x135x3 x114x142x3 x114x155x3 x114x163x3 x114x147x3 x114x2x3 x114x13x3 
x122x22x3 x122x84x3 x122x135x3 x122x142x3 x122x155x3 x122x163x3 x122x147x3 x122x2x3 x122x13x3 
x137x22x3 x137x49x2 x137x84x3 x137x100x2 x137x108x2 x137x135x3 x137x142x3 x137x155x2 x137x155x3 x137x163x3 x137x98x2 x137x147x3 x137x66x2 x137x94x2 x137x2x3 x137x13x2 x137x13x3 
x149x49x2 x149x100x2 x149x108x2 x149x155x2 x149x98x2 x149x66x2 x149x94x2 x149x13x2 
x109x16x1 x109x22x1 x109x49x1 x109x68x1 x109x135x1 x109x163x1 x109x170x1 x109x98x1 x109x147x1 x109x66x1 x109x2x1 x109x8x1 
x7x22x3 x7x84x3 x7x135x3 x7x142x3 x7x155x3 x7x163x3 x7x147x3 x7x2x3 x7x13x3 
x43x49x2 x43x100x2 x43x108x2 x43x155x2 x43x98x2 x43x66x2 x43x94x2 x43x13x2 
x83x5x2 x83x49x2 x83x72x2 x83x100x2 x83x108x2 x83x155x2 x83x165x2 x83x98x2 x83x66x2 x83x94x2 x83x13x2 
x5x147x3 x5x66x2 x5x94x2 x5x2x3 x5x13x2 x5x13x3 x5x0x2 x5x0x3 
x16x147x1 x16x147x3 x16x66x1 x16x2x1 x16x2x3 x16x8x1 x16x13x3 x16x0x1 x16x0x3 
x22x147x1 x22x147x3 x22x66x1 x22x2x1 x22x2x3 x22x8x1 x22x13x3 x22x0x1 x22x0x3 
x34x147x1 x34x66x1 x34x2x1 x34x8x1 x34x0x1 
x49x147x1 x49x66x1 x49x66x2 x49x94x2 x49x2x1 x49x8x1 x49x13x2 x49x0x1 x49x0x2 
x52x147x1 x52x66x1 x52x66x2 x52x94x2 x52x2x1 x52x8x1 x52x13x2 x52x0x1 x52x0x2 
x68x147x1 x68x66x1 x68x2x1 x68x8x1 x68x0x1 
x72x147x1 x72x66x1 x72x66x2 x72x94x2 x72x2x1 x72x8x1 x72x13x2 x72x0x1 x72x0x2 
x84x147x3 x84x2x3 x84x13x3 x84x0x3 
x100x66x2 x100x94x2 x100x13x2 x100x0x2 
x108x66x2 x108x94x2 x108x13x2 x108x0x2 
x112x66x2 x112x94x2 x112x13x2 x112x0x2 
x134x66x2 x134x94x2 x134x13x2 x134x0x2 
x135x147x1 x135x147x3 x135x66x1 x135x2x1 x135x2x3 x135x8x1 x135x13x3 x135x0x1 x135x0x3 
x142x147x3 x142x2x3 x142x13x3 x142x0x3 
x155x147x3 x155x66x2 x155x94x2 x155x2x3 x155x13x2 x155x13x3 x155x0x2 x155x0x3 
x163x147x1 x163x147x3 x163x66x1 x163x2x1 x163x2x3 x163x8x1 x163x13x3 x163x0x1 x163x0x3 
x165x66x2 x165x94x2 x165x13x2 x165x0x2 
x170x147x1 x170x66x1 x170x2x1 x170x8x1 x170x0x1 
x98x147x1 x98x66x1 x98x66x2 x98x94x2 x98x2x1 x98x8x1 x98x13x2 x98x0x1 x98x0x2 
x147x66x1 x147x8x1 x147x13x3 x147x0x1 x147x0x3 
x66x94x2 x66x8x1 x66x13x2 x66x0x1 x66x0x2 
x94x0x2 
x2x0x1 x2x0x3 
x8x0x1 
x13x0x2 x13x0x3 

Binaries
y5 y16 y22 y34 y49 y52 y68 y72 y84 y100 y108 y112 y134 y135 y142 y155 y163 y165 y170 y98 y147 y66 y94 y2 y8 y13 
z23z147z3 z23z66z2 z23z94z2 z23z2z3 z23z13z2 z23z13z3 
z171z147z1 z171z66z1 z171z2z1 z171z8z1 
z107z49z1 z107z163z1 z107z170z1 z107z98z1 z107z147z1 z107z66z1 z107z2z1 z107z8z1 
z92z147z1 z92z66z1 z92z66z2 z92z94z2 z92z2z1 z92z8z1 z92z13z2 
z138z16z1 z138z22z1 z138z34z1 z138z49z1 z138z68z1 z138z72z1 z138z135z1 z138z163z1 z138z170z1 z138z98z1 z138z147z1 z138z66z1 z138z2z1 z138z8z1 
z114z16z3 z114z22z3 z114z84z3 z114z135z3 z114z142z3 z114z155z3 z114z163z3 z114z147z3 z114z2z3 z114z13z3 
z122z22z3 z122z84z3 z122z135z3 z122z142z3 z122z155z3 z122z163z3 z122z147z3 z122z2z3 z122z13z3 
z137z22z3 z137z49z2 z137z84z3 z137z100z2 z137z108z2 z137z135z3 z137z142z3 z137z155z2 z137z155z3 z137z163z3 z137z98z2 z137z147z3 z137z66z2 z137z94z2 z137z2z3 z137z13z2 z137z13z3 
z149z49z2 z149z100z2 z149z108z2 z149z155z2 z149z98z2 z149z66z2 z149z94z2 z149z13z2 
z109z16z1 z109z22z1 z109z49z1 z109z68z1 z109z135z1 z109z163z1 z109z170z1 z109z98z1 z109z147z1 z109z66z1 z109z2z1 z109z8z1 
z7z22z3 z7z84z3 z7z135z3 z7z142z3 z7z155z3 z7z163z3 z7z147z3 z7z2z3 z7z13z3 
z43z49z2 z43z100z2 z43z108z2 z43z155z2 z43z98z2 z43z66z2 z43z94z2 z43z13z2 
z83z5z2 z83z49z2 z83z72z2 z83z100z2 z83z108z2 z83z155z2 z83z165z2 z83z98z2 z83z66z2 z83z94z2 z83z13z2 
z5z147z3 z5z66z2 z5z94z2 z5z2z3 z5z13z2 z5z13z3 
z16z147z1 z16z147z3 z16z66z1 z16z2z1 z16z2z3 z16z8z1 z16z13z3 
z22z147z1 z22z147z3 z22z66z1 z22z2z1 z22z2z3 z22z8z1 z22z13z3 
z34z147z1 z34z66z1 z34z2z1 z34z8z1 
z49z147z1 z49z66z1 z49z66z2 z49z94z2 z49z2z1 z49z8z1 z49z13z2 
z52z147z1 z52z66z1 z52z66z2 z52z94z2 z52z2z1 z52z8z1 z52z13z2 
z68z147z1 z68z66z1 z68z2z1 z68z8z1 
z72z147z1 z72z66z1 z72z66z2 z72z94z2 z72z2z1 z72z8z1 z72z13z2 
z84z147z3 z84z2z3 z84z13z3 
z100z66z2 z100z94z2 z100z13z2 
z108z66z2 z108z94z2 z108z13z2 
z112z66z2 z112z94z2 z112z13z2 
z134z66z2 z134z94z2 z134z13z2 
z135z147z1 z135z147z3 z135z66z1 z135z2z1 z135z2z3 z135z8z1 z135z13z3 
z142z147z3 z142z2z3 z142z13z3 
z155z147z3 z155z66z2 z155z94z2 z155z2z3 z155z13z2 z155z13z3 
z163z147z1 z163z147z3 z163z66z1 z163z2z1 z163z2z3 z163z8z1 z163z13z3 
z165z66z2 z165z94z2 z165z13z2 
z170z147z1 z170z66z1 z170z2z1 z170z8z1 
z98z147z1 z98z66z1 z98z66z2 z98z94z2 z98z2z1 z98z8z1 z98z13z2 
z147z66z1 z147z8z1 z147z13z3 
z66z94z2 z66z8z1 z66z13z2 





End